c ind 10 13 15 16 37 39 41 43 45 47 0
c ind 49 5 51 53 55 57 59 6 61 63 0
c ind 65 67 71 9 0
p cnf 72 178
-1 -2 11 0
-1 2 72 0
-11 -12 14 0
-11 12 17 0
-12 -13 9 0
-12 -9 13 0
-14 -15 16 0
-14 -16 15 0
-16 0
-17 -18 20 0
-17 18 72 0
-18 19 0
-18 3 0
-19 -13 5 0
-19 -5 13 0
-2 3 7 0
-20 -21 68 0
-20 21 72 0
-21 22 0
-21 66 0
-22 23 0
-22 64 0
-23 24 0
-23 62 0
-24 25 0
-24 60 0
-25 26 0
-25 58 0
-26 27 0
-26 56 0
-27 28 0
-27 54 0
-28 29 0
-28 52 0
-29 30 0
-29 50 0
-3 -4 0
-30 31 0
-30 48 0
-31 32 0
-31 46 0
-32 33 0
-32 44 0
-33 34 0
-33 42 0
-34 35 0
-34 40 0
-35 36 0
-35 38 0
-36 -13 37 0
-36 -37 13 0
-38 -13 39 0
-38 -39 13 0
-4 -5 6 0
-4 -6 5 0
-40 -13 41 0
-40 -41 13 0
-42 -13 43 0
-42 -43 13 0
-44 -13 45 0
-44 -45 13 0
-46 -13 47 0
-46 -47 13 0
-48 -13 49 0
-48 -49 13 0
-50 -13 51 0
-50 -51 13 0
-52 -13 53 0
-52 -53 13 0
-54 -13 55 0
-54 -55 13 0
-56 -13 57 0
-56 -57 13 0
-58 -13 59 0
-58 -59 13 0
-60 -13 61 0
-60 -61 13 0
-62 -13 63 0
-62 -63 13 0
-64 -13 65 0
-64 -65 13 0
-66 -13 67 0
-66 -67 13 0
-68 -15 69 0
-68 -69 15 0
-69 -70 -16 0
-69 70 16 0
-7 -8 0
-70 -71 -13 0
-70 71 13 0
-72 -15 71 0
-72 -71 15 0
-8 -10 9 0
-8 -9 10 0
1 -11 -72 0
1 -2 -11 0
1 0
1 2 -72 0
11 -12 -14 0
11 -14 -17 0
11 12 -17 0
12 -9 -13 0
12 9 13 0
13 0
14 -15 -16 0
14 15 16 0
17 -18 -20 0
17 -20 -72 0
17 18 -72 0
18 -3 -19 0
19 -5 -13 0
19 5 13 0
2 -3 0
2 -7 0
20 -21 -68 0
20 -68 -72 0
20 21 -72 0
21 -22 -66 0
22 -23 -64 0
23 -24 -62 0
24 -25 -60 0
25 -26 -58 0
26 -27 -56 0
27 -28 -54 0
28 -29 -52 0
29 -30 -50 0
3 4 0
30 -31 -48 0
31 -32 -46 0
32 -33 -44 0
33 -34 -42 0
34 -35 -40 0
35 -36 -38 0
36 -37 -13 0
36 37 13 0
38 -39 -13 0
38 39 13 0
4 -5 -6 0
4 5 6 0
40 -41 -13 0
40 41 13 0
42 -43 -13 0
42 43 13 0
44 -45 -13 0
44 45 13 0
46 -47 -13 0
46 47 13 0
48 -49 -13 0
48 49 13 0
50 -51 -13 0
50 51 13 0
52 -53 -13 0
52 53 13 0
54 -55 -13 0
54 55 13 0
56 -57 -13 0
56 57 13 0
58 -59 -13 0
58 59 13 0
60 -61 -13 0
60 61 13 0
62 -63 -13 0
62 63 13 0
64 -65 -13 0
64 65 13 0
66 -67 -13 0
66 67 13 0
68 -15 -69 0
68 15 69 0
69 -16 70 0
69 -70 16 0
7 8 0
70 -13 71 0
70 -71 13 0
72 -15 -71 0
72 15 71 0
8 -9 -10 0
8 9 10 0
